InboundTrucks  = 12;
OutboundTrucks = 8;
InboundDoors   = 2;
OutboundDoors  = 1;
ReleaseTime    = [30,19,29,26,10,23,14,33,29,1,24,15];
UnloadTime     = [8,8,5,6,4,4,10,3,8,9,6,7];
LoadTime       = [10,7,5,1,2,2,4,5];
TransferTime   = [| 0,0,1,2,0,0,0,0 | 0,0,0,0,0,0,4,0 | 5,0,0,0,4,2,0,0 | 0,1,0,4,5,0,0,1 | 0,4,0,0,0,0,0,0 | 5,4,0,3,0,0,0,0 | 0,4,0,0,0,0,0,0 | 0,0,0,5,0,0,0,0 | 0,0,0,0,0,0,0,2 | 0,0,2,0,0,0,0,0 | 0,2,0,0,4,3,0,0 | 0,1,0,3,0,2,0,0 |];
